 {VASPAtoms:66Rh}                       
 8.07039999999999935
     1.6329797800000001    0.0000000000000000    0.0000000000000000
     0.0000000000000000    1.0000000000000000    0.0000000000000000
     0.0000000000000000    0.0000000000000000    2.8208886799999999
  66   4   4
Direct
  0.2349820420473212  0.1026020733332611  0.3970681929947307
  0.7346345740427255  0.1061028656536193  0.3899382315921392
  0.2352918456328009  0.4371760785239392  0.3979737361256209
  0.7403417196029770  0.4447961077143104  0.3914627957630875
  0.2352142124685983  0.7698245231969302  0.3951630494735451
  0.7356272641954754  0.7761868953880665  0.3941028013106472
  0.4021317082041050  0.1034234449578823  0.5342917564192226
  0.9018609734525216  0.1049684480314468  0.5326102095014363
  0.4025571912344780  0.4358133618560601  0.5334736887151020
  0.9013459118013274  0.4380655992080933  0.5326620959589863
  0.4016028855163067  0.7694721653494480  0.5346111423331059
  0.9017887042701256  0.7719745448669934  0.5329158656893975
  0.0612031316031669  0.1032371351422744  0.6694196453641599
  0.5752831646638454  0.0971025096808225  0.6674097046766315
  0.0583142474680983  0.4392519917774779  0.6698094328552647
  0.5774112182578254  0.4363273307039314  0.6673804498021966
  0.0668886788676470  0.7715603319793712  0.6684871719767964
  0.5722598213843729  0.7678454599561610  0.6669074414910299
  0.3981737085775064  0.0971115834209510  0.3325992790122704
  0.9122433422177734  0.1032413714717733  0.3305874779275393
  0.3960464808846486  0.4363297925867634  0.3326273700964502
  0.9151307473239626  0.4392542692248297  0.3301980410754625
  0.4011917652425948  0.7678464522531508  0.3331011600619217
  0.9065571385935066  0.7715633814795542  0.3315204905470425
  0.0715878636984167  0.1049690226156064  0.4673949761303499
  0.5713178518091701  0.1034211263955350  0.4657163785039389
  0.0721030102345529  0.4380656128650766  0.4673435004958634
  0.5708924283788026  0.4358120701159739  0.4665361043845287
  0.0716591517282468  0.7719745170016403  0.4670897608673829
  0.5718464299259731  0.7694723079403616  0.4653976899760318
  0.2388203337368582  0.1061037439803664  0.6100712205108747
  0.7384658029875100  0.1025976388982936  0.6029380363367899
  0.2331137226693019  0.4447953123524656  0.6085541516739562
  0.7381549433767467  0.4371741686604828  0.6020310527779735
  0.2378228635046567  0.7761840216696603  0.6059069125159088
  0.7382324952531036  0.7698214706689969  0.6048434347021971
  0.4017582490498018  0.2688625644282580  0.4328296853627157
  0.9045973821038598  0.2725467498774226  0.4308810946458787
  0.4025314381092534  0.6023540696549329  0.4332793678730654
  0.9042715446224356  0.6064419697891347  0.4312710485797557
  0.4025895447227603  0.9355805427445375  0.4331040453599522
  0.9018945882123102  0.9400174892476312  0.4310944885029102
  0.0688533894202191  0.2725437454385741  0.5691245638770043
  0.5716907529320373  0.2688605172332811  0.5671778274226525
  0.0691796332436540  0.6064383718359376  0.5687342730614011
  0.5709159367462235  0.6023509539669100  0.5667293509281714
  0.0715540728809062  0.9400151942688499  0.5689103400423798
  0.5708578014860239  0.9355795090438365  0.5669047444685406
  0.0728091090669891  0.2699507401178564  0.3644049898072642
  0.5589163517646092  0.2641778355149049  0.3579529255917820
  0.0720652678797474  0.6053659422842540  0.3645507977736147
  0.5675108440806212  0.6022742820293047  0.3600275471084573
  0.0711968547071971  0.9371049440542114  0.3645124840988297
  0.5664470056619928  0.9318668985427170  0.3626885785133333
  0.2356846823130364  0.2697607191595110  0.5027640008149215
  0.7377656036578275  0.2697568240332140  0.4972453724133330
  0.2359186044219540  0.6038327133026642  0.5022761202058449
  0.7375302817130677  0.6038345953963149  0.4977315127544431
  0.2368040861939737  0.9371543839833643  0.5013436424650303
  0.7366440254743516  0.9371518939194898  0.4986649775352683
  0.4145479405205241  0.2641706180307452  0.6420521687742603
  0.9006346814780657  0.2699485057538515  0.6356015340499348
  0.4059479683009055  0.6022789663815659  0.6399815216337771
  0.9013779904986313  0.6053638071055281  0.6354559357333971
  0.4070038540402287  0.9318662009796549  0.6373203281762340
  0.9022465810111977  0.9371004328709429  0.6354945646200236
  0.2670709652813004  0.2718446386256931  0.6810226858078455
  0.3182400768123049  0.4276540919688979  0.6882204769845042
  0.7064111288663741  0.2717991888054909  0.3189807860972175
  0.6552675522063123  0.4276348021618571  0.3117951994427060
  0.2297715037943079  0.2165642202480898  0.7198140241663600
  0.3166577498264371  0.4897430668539273  0.7312418486195624
  0.7436674126606050  0.2164926422309366  0.2801820293523845
  0.6568597835624517  0.4897562497712807  0.2687798459955711
 
  0.00000000E+00  0.00000000E+00  0.00000000E+00
  0.00000000E+00  0.00000000E+00  0.00000000E+00
  0.00000000E+00  0.00000000E+00  0.00000000E+00
  0.00000000E+00  0.00000000E+00  0.00000000E+00
  0.00000000E+00  0.00000000E+00  0.00000000E+00
  0.00000000E+00  0.00000000E+00  0.00000000E+00
  0.00000000E+00  0.00000000E+00  0.00000000E+00
  0.00000000E+00  0.00000000E+00  0.00000000E+00
  0.00000000E+00  0.00000000E+00  0.00000000E+00
  0.00000000E+00  0.00000000E+00  0.00000000E+00
  0.00000000E+00  0.00000000E+00  0.00000000E+00
  0.00000000E+00  0.00000000E+00  0.00000000E+00
  0.00000000E+00  0.00000000E+00  0.00000000E+00
  0.00000000E+00  0.00000000E+00  0.00000000E+00
  0.00000000E+00  0.00000000E+00  0.00000000E+00
  0.00000000E+00  0.00000000E+00  0.00000000E+00
  0.00000000E+00  0.00000000E+00  0.00000000E+00
  0.00000000E+00  0.00000000E+00  0.00000000E+00
  0.00000000E+00  0.00000000E+00  0.00000000E+00
  0.00000000E+00  0.00000000E+00  0.00000000E+00
  0.00000000E+00  0.00000000E+00  0.00000000E+00
  0.00000000E+00  0.00000000E+00  0.00000000E+00
  0.00000000E+00  0.00000000E+00  0.00000000E+00
  0.00000000E+00  0.00000000E+00  0.00000000E+00
  0.00000000E+00  0.00000000E+00  0.00000000E+00
  0.00000000E+00  0.00000000E+00  0.00000000E+00
  0.00000000E+00  0.00000000E+00  0.00000000E+00
  0.00000000E+00  0.00000000E+00  0.00000000E+00
  0.00000000E+00  0.00000000E+00  0.00000000E+00
  0.00000000E+00  0.00000000E+00  0.00000000E+00
  0.00000000E+00  0.00000000E+00  0.00000000E+00
  0.00000000E+00  0.00000000E+00  0.00000000E+00
  0.00000000E+00  0.00000000E+00  0.00000000E+00
  0.00000000E+00  0.00000000E+00  0.00000000E+00
  0.00000000E+00  0.00000000E+00  0.00000000E+00
  0.00000000E+00  0.00000000E+00  0.00000000E+00
  0.00000000E+00  0.00000000E+00  0.00000000E+00
  0.00000000E+00  0.00000000E+00  0.00000000E+00
  0.00000000E+00  0.00000000E+00  0.00000000E+00
  0.00000000E+00  0.00000000E+00  0.00000000E+00
  0.00000000E+00  0.00000000E+00  0.00000000E+00
  0.00000000E+00  0.00000000E+00  0.00000000E+00
  0.00000000E+00  0.00000000E+00  0.00000000E+00
  0.00000000E+00  0.00000000E+00  0.00000000E+00
  0.00000000E+00  0.00000000E+00  0.00000000E+00
  0.00000000E+00  0.00000000E+00  0.00000000E+00
  0.00000000E+00  0.00000000E+00  0.00000000E+00
  0.00000000E+00  0.00000000E+00  0.00000000E+00
  0.00000000E+00  0.00000000E+00  0.00000000E+00
  0.00000000E+00  0.00000000E+00  0.00000000E+00
  0.00000000E+00  0.00000000E+00  0.00000000E+00
  0.00000000E+00  0.00000000E+00  0.00000000E+00
  0.00000000E+00  0.00000000E+00  0.00000000E+00
  0.00000000E+00  0.00000000E+00  0.00000000E+00
  0.00000000E+00  0.00000000E+00  0.00000000E+00
  0.00000000E+00  0.00000000E+00  0.00000000E+00
  0.00000000E+00  0.00000000E+00  0.00000000E+00
  0.00000000E+00  0.00000000E+00  0.00000000E+00
  0.00000000E+00  0.00000000E+00  0.00000000E+00
  0.00000000E+00  0.00000000E+00  0.00000000E+00
  0.00000000E+00  0.00000000E+00  0.00000000E+00
  0.00000000E+00  0.00000000E+00  0.00000000E+00
  0.00000000E+00  0.00000000E+00  0.00000000E+00
  0.00000000E+00  0.00000000E+00  0.00000000E+00
  0.00000000E+00  0.00000000E+00  0.00000000E+00
  0.00000000E+00  0.00000000E+00  0.00000000E+00
  0.00000000E+00  0.00000000E+00  0.00000000E+00
  0.00000000E+00  0.00000000E+00  0.00000000E+00
  0.00000000E+00  0.00000000E+00  0.00000000E+00
  0.00000000E+00  0.00000000E+00  0.00000000E+00
  0.00000000E+00  0.00000000E+00  0.00000000E+00
  0.00000000E+00  0.00000000E+00  0.00000000E+00
  0.00000000E+00  0.00000000E+00  0.00000000E+00
  0.00000000E+00  0.00000000E+00  0.00000000E+00
